c " random instance " 
p edges 200 2114
e 1 3
e 1 5
e 1 13
e 1 39
e 1 56
e 1 64
e 1 72
e 1 76
e 1 80
e 1 99
e 1 112
e 1 114
e 1 117
e 1 125
e 1 147
e 1 148
e 1 158
e 1 160
e 1 183
e 1 185
e 1 194
e 2 3
e 2 39
e 2 64
e 2 74
e 2 76
e 2 88
e 2 90
e 2 96
e 2 104
e 2 113
e 2 128
e 2 129
e 2 137
e 2 138
e 2 145
e 2 153
e 2 174
e 2 189
e 2 191
e 3 5
e 3 8
e 3 9
e 3 15
e 3 19
e 3 32
e 3 33
e 3 48
e 3 50
e 3 60
e 3 63
e 3 66
e 3 73
e 3 84
e 3 87
e 3 95
e 3 99
e 3 101
e 3 138
e 3 173
e 3 178
e 3 194
e 4 10
e 4 18
e 4 52
e 4 53
e 4 65
e 4 84
e 4 89
e 4 94
e 4 125
e 4 132
e 4 136
e 4 152
e 4 154
e 4 156
e 4 163
e 4 164
e 4 166
e 4 174
e 4 187
e 4 200
e 5 19
e 5 21
e 5 25
e 5 38
e 5 46
e 5 52
e 5 71
e 5 74
e 5 95
e 5 103
e 5 107
e 5 108
e 5 116
e 5 123
e 5 131
e 5 139
e 5 145
e 5 154
e 5 160
e 5 167
e 5 169
e 5 171
e 5 174
e 5 179
e 5 180
e 5 182
e 5 199
e 6 20
e 6 29
e 6 32
e 6 44
e 6 60
e 6 78
e 6 84
e 6 92
e 6 104
e 6 106
e 6 114
e 6 118
e 6 121
e 6 125
e 6 130
e 6 136
e 6 149
e 6 150
e 6 155
e 6 158
e 6 161
e 6 172
e 6 178
e 6 180
e 6 189
e 6 192
e 6 195
e 6 196
e 7 10
e 7 11
e 7 24
e 7 29
e 7 53
e 7 57
e 7 62
e 7 64
e 7 69
e 7 73
e 7 76
e 7 96
e 7 97
e 7 100
e 7 101
e 7 105
e 7 127
e 7 131
e 7 135
e 7 147
e 7 151
e 7 161
e 7 169
e 7 191
e 8 9
e 8 10
e 8 41
e 8 46
e 8 60
e 8 78
e 8 82
e 8 106
e 8 112
e 8 124
e 8 130
e 8 140
e 8 153
e 8 163
e 8 179
e 9 34
e 9 41
e 9 42
e 9 47
e 9 61
e 9 66
e 9 104
e 9 106
e 9 150
e 9 155
e 9 157
e 9 163
e 9 175
e 9 178
e 9 195
e 9 199
e 10 21
e 10 31
e 10 38
e 10 39
e 10 43
e 10 52
e 10 71
e 10 72
e 10 76
e 10 78
e 10 83
e 10 88
e 10 97
e 10 121
e 10 127
e 10 138
e 10 144
e 10 152
e 10 156
e 10 158
e 10 160
e 10 165
e 10 198
e 11 19
e 11 22
e 11 33
e 11 36
e 11 42
e 11 43
e 11 48
e 11 50
e 11 71
e 11 80
e 11 90
e 11 93
e 11 94
e 11 141
e 11 158
e 11 161
e 11 163
e 11 169
e 11 171
e 11 172
e 11 177
e 11 184
e 11 187
e 11 189
e 11 200
e 12 25
e 12 34
e 12 35
e 12 43
e 12 62
e 12 66
e 12 79
e 12 81
e 12 85
e 12 97
e 12 103
e 12 133
e 12 135
e 12 178
e 12 189
e 13 17
e 13 40
e 13 49
e 13 54
e 13 63
e 13 64
e 13 72
e 13 87
e 13 89
e 13 116
e 13 138
e 13 141
e 13 165
e 13 168
e 13 173
e 13 176
e 13 190
e 13 193
e 13 195
e 13 197
e 14 22
e 14 29
e 14 35
e 14 36
e 14 42
e 14 43
e 14 58
e 14 68
e 14 74
e 14 94
e 14 103
e 14 105
e 14 111
e 14 139
e 14 140
e 14 143
e 14 152
e 14 153
e 14 154
e 14 188
e 14 190
e 15 18
e 15 32
e 15 49
e 15 52
e 15 57
e 15 64
e 15 76
e 15 79
e 15 83
e 15 90
e 15 91
e 15 117
e 15 125
e 15 137
e 15 154
e 15 161
e 15 166
e 15 171
e 15 173
e 16 25
e 16 64
e 16 71
e 16 78
e 16 83
e 16 87
e 16 88
e 16 95
e 16 97
e 16 110
e 16 124
e 16 161
e 16 190
e 16 193
e 17 23
e 17 34
e 17 41
e 17 44
e 17 45
e 17 57
e 17 89
e 17 103
e 17 119
e 17 120
e 17 121
e 17 144
e 17 157
e 17 174
e 17 182
e 17 189
e 17 192
e 17 199
e 17 200
e 18 30
e 18 47
e 18 55
e 18 58
e 18 62
e 18 87
e 18 92
e 18 121
e 18 123
e 18 127
e 18 150
e 18 162
e 18 173
e 18 188
e 18 190
e 18 195
e 19 34
e 19 36
e 19 42
e 19 43
e 19 48
e 19 52
e 19 61
e 19 62
e 19 86
e 19 112
e 19 117
e 19 124
e 19 131
e 19 139
e 19 143
e 19 159
e 19 167
e 19 186
e 19 193
e 20 29
e 20 40
e 20 55
e 20 62
e 20 78
e 20 88
e 20 109
e 20 119
e 20 125
e 20 130
e 20 138
e 20 141
e 20 146
e 20 147
e 20 150
e 20 170
e 20 177
e 20 185
e 20 187
e 20 199
e 20 200
e 21 37
e 21 38
e 21 44
e 21 50
e 21 52
e 21 66
e 21 75
e 21 78
e 21 88
e 21 91
e 21 95
e 21 109
e 21 113
e 21 116
e 21 126
e 21 131
e 21 140
e 21 141
e 21 143
e 21 150
e 21 153
e 21 155
e 21 159
e 21 179
e 21 187
e 21 196
e 21 197
e 21 199
e 22 27
e 22 30
e 22 43
e 22 77
e 22 85
e 22 95
e 22 99
e 22 117
e 22 132
e 22 138
e 22 169
e 22 175
e 22 178
e 23 33
e 23 36
e 23 41
e 23 54
e 23 56
e 23 64
e 23 65
e 23 81
e 23 83
e 23 89
e 23 90
e 23 91
e 23 92
e 23 98
e 23 103
e 23 105
e 23 106
e 23 129
e 23 133
e 23 136
e 23 144
e 23 156
e 23 168
e 23 169
e 23 181
e 23 183
e 23 184
e 23 185
e 24 26
e 24 36
e 24 39
e 24 41
e 24 72
e 24 73
e 24 91
e 24 101
e 24 106
e 24 119
e 24 129
e 24 133
e 24 134
e 24 144
e 24 148
e 24 161
e 24 168
e 24 188
e 25 34
e 25 48
e 25 71
e 25 88
e 25 108
e 25 110
e 25 111
e 25 115
e 25 124
e 25 156
e 25 166
e 25 182
e 25 185
e 25 191
e 26 30
e 26 44
e 26 45
e 26 46
e 26 49
e 26 51
e 26 63
e 26 66
e 26 72
e 26 104
e 26 124
e 26 130
e 26 135
e 26 139
e 26 140
e 26 144
e 26 176
e 27 31
e 27 32
e 27 39
e 27 50
e 27 83
e 27 88
e 27 98
e 27 100
e 27 115
e 27 124
e 27 126
e 27 127
e 27 130
e 27 137
e 27 138
e 27 140
e 27 143
e 27 160
e 27 171
e 27 175
e 27 184
e 27 196
e 28 29
e 28 44
e 28 48
e 28 49
e 28 57
e 28 59
e 28 66
e 28 69
e 28 77
e 28 79
e 28 87
e 28 102
e 28 106
e 28 107
e 28 109
e 28 112
e 28 113
e 28 161
e 28 166
e 28 180
e 28 181
e 28 194
e 29 33
e 29 46
e 29 55
e 29 64
e 29 65
e 29 66
e 29 72
e 29 84
e 29 99
e 29 106
e 29 114
e 29 121
e 29 152
e 29 162
e 29 188
e 29 189
e 29 192
e 30 35
e 30 44
e 30 55
e 30 69
e 30 90
e 30 93
e 30 106
e 30 110
e 30 113
e 30 117
e 30 119
e 30 120
e 30 126
e 30 139
e 30 142
e 30 150
e 30 154
e 30 168
e 30 178
e 30 187
e 30 194
e 30 196
e 30 198
e 31 33
e 31 37
e 31 38
e 31 47
e 31 50
e 31 65
e 31 77
e 31 89
e 31 96
e 31 103
e 31 107
e 31 114
e 31 119
e 31 122
e 31 132
e 31 133
e 31 166
e 31 172
e 31 173
e 31 174
e 31 185
e 32 43
e 32 47
e 32 59
e 32 65
e 32 80
e 32 86
e 32 100
e 32 102
e 32 105
e 32 112
e 32 127
e 32 142
e 32 149
e 32 151
e 32 154
e 32 170
e 32 173
e 32 182
e 32 194
e 33 37
e 33 51
e 33 72
e 33 86
e 33 90
e 33 107
e 33 119
e 33 127
e 33 135
e 33 136
e 33 145
e 33 171
e 33 179
e 33 189
e 33 191
e 34 37
e 34 40
e 34 52
e 34 55
e 34 56
e 34 57
e 34 77
e 34 78
e 34 87
e 34 99
e 34 104
e 34 111
e 34 126
e 34 130
e 34 143
e 34 146
e 34 161
e 34 163
e 34 165
e 34 187
e 34 189
e 34 191
e 34 195
e 34 196
e 35 77
e 35 86
e 35 95
e 35 102
e 35 114
e 35 125
e 35 128
e 35 130
e 35 138
e 35 139
e 35 143
e 35 147
e 35 157
e 35 158
e 35 174
e 35 185
e 35 188
e 35 189
e 35 194
e 36 42
e 36 54
e 36 74
e 36 102
e 36 111
e 36 118
e 36 141
e 36 172
e 36 174
e 36 177
e 36 191
e 37 61
e 37 62
e 37 75
e 37 84
e 37 85
e 37 91
e 37 92
e 37 93
e 37 100
e 37 108
e 37 110
e 37 123
e 37 135
e 37 138
e 37 176
e 37 186
e 38 42
e 38 45
e 38 61
e 38 100
e 38 104
e 38 117
e 38 122
e 38 128
e 38 142
e 38 146
e 38 161
e 38 173
e 38 196
e 39 47
e 39 73
e 39 96
e 39 98
e 39 107
e 39 117
e 39 149
e 39 153
e 39 170
e 39 184
e 39 196
e 40 41
e 40 51
e 40 54
e 40 74
e 40 90
e 40 96
e 40 112
e 40 116
e 40 130
e 40 136
e 40 142
e 40 149
e 40 152
e 40 158
e 40 159
e 40 160
e 40 162
e 40 169
e 40 170
e 40 183
e 41 42
e 41 54
e 41 55
e 41 61
e 41 82
e 41 98
e 41 102
e 41 119
e 41 147
e 41 154
e 41 159
e 41 186
e 41 191
e 41 193
e 41 195
e 42 44
e 42 66
e 42 71
e 42 78
e 42 105
e 42 115
e 42 133
e 42 148
e 42 160
e 42 168
e 42 180
e 42 194
e 42 195
e 42 198
e 43 80
e 43 86
e 43 101
e 43 103
e 43 104
e 43 120
e 43 126
e 43 139
e 43 149
e 43 164
e 43 165
e 43 168
e 43 171
e 43 176
e 43 184
e 43 200
e 44 50
e 44 56
e 44 58
e 44 67
e 44 76
e 44 88
e 44 94
e 44 99
e 44 104
e 44 107
e 44 109
e 44 114
e 44 134
e 44 140
e 44 151
e 44 162
e 44 173
e 44 174
e 44 175
e 44 181
e 44 187
e 44 189
e 45 46
e 45 62
e 45 69
e 45 71
e 45 73
e 45 82
e 45 83
e 45 91
e 45 100
e 45 111
e 45 112
e 45 113
e 45 157
e 45 164
e 45 189
e 46 47
e 46 50
e 46 83
e 46 85
e 46 90
e 46 92
e 46 102
e 46 103
e 46 111
e 46 131
e 46 153
e 46 161
e 46 163
e 46 171
e 46 172
e 46 179
e 46 199
e 47 50
e 47 57
e 47 72
e 47 79
e 47 93
e 47 100
e 47 128
e 47 130
e 47 142
e 47 153
e 47 159
e 47 177
e 47 191
e 47 200
e 48 95
e 48 97
e 48 106
e 48 108
e 48 110
e 48 131
e 48 133
e 48 159
e 48 162
e 48 167
e 48 177
e 48 197
e 49 69
e 49 92
e 49 118
e 49 132
e 49 164
e 49 167
e 49 177
e 49 194
e 49 197
e 50 51
e 50 54
e 50 62
e 50 64
e 50 67
e 50 72
e 50 88
e 50 95
e 50 106
e 50 117
e 50 122
e 50 123
e 50 133
e 50 153
e 50 156
e 50 157
e 50 171
e 50 173
e 50 174
e 50 182
e 50 192
e 51 53
e 51 63
e 51 83
e 51 88
e 51 118
e 51 139
e 51 145
e 51 158
e 51 160
e 51 162
e 51 163
e 51 166
e 51 168
e 51 178
e 51 198
e 52 73
e 52 81
e 52 84
e 52 87
e 52 94
e 52 99
e 52 118
e 52 127
e 52 136
e 52 140
e 52 158
e 52 197
e 53 67
e 53 68
e 53 76
e 53 92
e 53 107
e 53 109
e 53 110
e 53 113
e 53 140
e 53 145
e 53 155
e 53 175
e 53 185
e 53 193
e 53 200
e 54 59
e 54 70
e 54 75
e 54 91
e 54 100
e 54 102
e 54 109
e 54 111
e 54 116
e 54 123
e 54 127
e 54 134
e 54 159
e 54 177
e 54 189
e 54 190
e 54 193
e 55 58
e 55 85
e 55 100
e 55 116
e 55 120
e 55 129
e 55 141
e 55 158
e 55 163
e 55 170
e 55 186
e 55 189
e 55 190
e 56 71
e 56 73
e 56 79
e 56 96
e 56 112
e 56 119
e 56 122
e 56 123
e 56 125
e 56 140
e 56 146
e 56 153
e 56 194
e 57 66
e 57 72
e 57 77
e 57 82
e 57 98
e 57 115
e 57 133
e 57 140
e 57 141
e 57 145
e 57 147
e 57 153
e 57 154
e 57 156
e 57 162
e 57 165
e 57 170
e 57 173
e 57 185
e 57 194
e 57 197
e 58 65
e 58 75
e 58 79
e 58 81
e 58 117
e 58 129
e 58 133
e 58 144
e 58 157
e 58 165
e 58 178
e 58 187
e 58 194
e 58 195
e 59 62
e 59 70
e 59 86
e 59 88
e 59 92
e 59 94
e 59 96
e 59 98
e 59 100
e 59 112
e 59 113
e 59 135
e 59 157
e 59 161
e 59 174
e 59 179
e 59 190
e 59 197
e 59 199
e 60 63
e 60 68
e 60 70
e 60 73
e 60 85
e 60 93
e 60 105
e 60 117
e 60 118
e 60 120
e 60 125
e 60 135
e 60 138
e 60 145
e 60 152
e 60 155
e 60 184
e 60 186
e 60 189
e 60 193
e 61 63
e 61 84
e 61 87
e 61 91
e 61 100
e 61 128
e 61 133
e 61 143
e 61 165
e 62 88
e 62 100
e 62 114
e 62 117
e 62 118
e 62 134
e 62 144
e 62 188
e 62 198
e 63 66
e 63 69
e 63 75
e 63 79
e 63 83
e 63 119
e 63 123
e 63 129
e 63 132
e 63 156
e 63 162
e 63 165
e 63 169
e 63 170
e 63 182
e 63 195
e 64 66
e 64 74
e 64 88
e 64 89
e 64 90
e 64 91
e 64 107
e 64 122
e 64 123
e 64 130
e 64 133
e 64 144
e 64 149
e 64 152
e 64 160
e 64 163
e 64 164
e 64 166
e 64 181
e 64 187
e 64 199
e 65 70
e 65 86
e 65 88
e 65 91
e 65 93
e 65 107
e 65 108
e 65 113
e 65 126
e 65 147
e 65 153
e 65 164
e 65 175
e 65 177
e 65 199
e 65 200
e 66 69
e 66 70
e 66 72
e 66 79
e 66 83
e 66 96
e 66 106
e 66 121
e 66 126
e 66 143
e 66 144
e 66 154
e 66 158
e 66 162
e 66 167
e 66 180
e 66 192
e 67 73
e 67 86
e 67 91
e 67 107
e 67 112
e 67 134
e 67 143
e 67 147
e 67 151
e 67 170
e 67 186
e 68 73
e 68 74
e 68 75
e 68 94
e 68 97
e 68 100
e 68 109
e 68 113
e 68 116
e 68 122
e 68 135
e 68 145
e 68 147
e 68 151
e 68 154
e 68 172
e 68 178
e 68 191
e 68 197
e 68 200
e 69 74
e 69 83
e 69 87
e 69 92
e 69 106
e 69 116
e 69 119
e 69 132
e 69 136
e 69 152
e 69 154
e 69 161
e 69 165
e 69 195
e 70 73
e 70 74
e 70 112
e 70 131
e 70 145
e 70 151
e 70 152
e 70 157
e 70 178
e 70 188
e 70 200
e 71 72
e 71 77
e 71 80
e 71 83
e 71 86
e 71 126
e 71 135
e 71 141
e 71 153
e 71 156
e 71 170
e 71 180
e 71 182
e 72 75
e 72 94
e 72 95
e 72 97
e 72 99
e 72 114
e 72 124
e 72 125
e 72 129
e 72 130
e 72 141
e 72 149
e 72 156
e 72 172
e 72 182
e 72 189
e 72 195
e 72 199
e 72 200
e 73 78
e 73 96
e 73 100
e 73 106
e 73 110
e 73 119
e 73 138
e 73 139
e 73 174
e 73 183
e 73 187
e 74 78
e 74 113
e 74 119
e 74 121
e 74 122
e 74 146
e 74 148
e 74 151
e 74 179
e 74 193
e 74 196
e 75 77
e 75 82
e 75 83
e 75 94
e 75 96
e 75 101
e 75 109
e 75 113
e 75 114
e 75 119
e 75 131
e 75 139
e 75 147
e 75 160
e 75 182
e 75 187
e 76 91
e 76 92
e 76 98
e 76 131
e 76 132
e 76 158
e 76 159
e 76 172
e 76 174
e 76 176
e 76 177
e 76 187
e 77 90
e 77 123
e 77 124
e 77 137
e 77 139
e 77 145
e 77 164
e 77 170
e 77 172
e 77 173
e 77 182
e 77 185
e 77 192
e 77 194
e 77 196
e 77 200
e 78 81
e 78 102
e 78 103
e 78 129
e 78 134
e 78 135
e 78 142
e 78 174
e 78 175
e 78 181
e 78 182
e 78 194
e 78 196
e 79 93
e 79 96
e 79 103
e 79 121
e 79 126
e 79 136
e 79 147
e 79 154
e 79 159
e 79 163
e 79 168
e 79 177
e 79 197
e 80 86
e 80 107
e 80 112
e 80 124
e 80 125
e 80 126
e 80 134
e 80 152
e 80 155
e 80 161
e 80 168
e 80 170
e 80 189
e 81 88
e 81 94
e 81 95
e 81 107
e 81 135
e 81 136
e 81 147
e 81 148
e 81 167
e 81 172
e 81 177
e 81 182
e 81 186
e 81 193
e 81 196
e 82 92
e 82 110
e 82 180
e 82 182
e 82 189
e 82 194
e 82 197
e 82 198
e 83 86
e 83 87
e 83 96
e 83 106
e 83 107
e 83 123
e 83 128
e 83 137
e 83 139
e 83 149
e 83 163
e 83 171
e 83 181
e 83 188
e 83 195
e 84 96
e 84 126
e 84 128
e 84 141
e 84 148
e 84 166
e 84 175
e 84 178
e 84 179
e 84 181
e 84 185
e 84 186
e 84 196
e 84 200
e 85 88
e 85 101
e 85 103
e 85 107
e 85 114
e 85 117
e 85 118
e 85 120
e 85 133
e 85 138
e 85 150
e 85 152
e 85 157
e 85 169
e 85 172
e 85 173
e 85 174
e 85 177
e 85 179
e 85 184
e 85 198
e 86 102
e 86 135
e 86 138
e 86 140
e 86 148
e 86 158
e 86 176
e 86 178
e 86 179
e 86 192
e 87 91
e 87 93
e 87 97
e 87 102
e 87 104
e 87 107
e 87 115
e 87 118
e 87 120
e 87 134
e 87 142
e 87 156
e 87 162
e 87 164
e 87 168
e 87 173
e 87 178
e 87 187
e 88 89
e 88 90
e 88 101
e 88 124
e 88 150
e 88 173
e 88 178
e 88 187
e 88 188
e 89 90
e 89 98
e 89 109
e 89 137
e 89 143
e 89 148
e 89 164
e 89 171
e 89 173
e 90 95
e 90 100
e 90 102
e 90 103
e 90 104
e 90 116
e 90 117
e 90 118
e 90 119
e 90 149
e 90 154
e 90 163
e 90 168
e 90 170
e 90 172
e 90 181
e 90 199
e 91 95
e 91 97
e 91 113
e 91 115
e 91 116
e 91 140
e 91 141
e 91 150
e 91 151
e 91 152
e 91 157
e 91 158
e 91 172
e 91 182
e 92 99
e 92 107
e 92 110
e 92 114
e 92 118
e 92 167
e 92 170
e 92 176
e 92 187
e 92 189
e 92 193
e 92 198
e 92 199
e 92 200
e 93 95
e 93 96
e 93 108
e 93 110
e 93 116
e 93 123
e 93 136
e 93 153
e 93 158
e 93 173
e 93 182
e 93 184
e 93 196
e 94 101
e 94 108
e 94 130
e 94 136
e 94 147
e 94 156
e 94 167
e 94 183
e 94 199
e 95 105
e 95 106
e 95 112
e 95 115
e 95 122
e 95 132
e 95 138
e 95 144
e 95 159
e 95 170
e 95 179
e 96 101
e 96 102
e 96 105
e 96 113
e 96 125
e 96 129
e 96 133
e 96 142
e 96 143
e 96 163
e 96 179
e 96 181
e 96 185
e 96 187
e 96 199
e 97 113
e 97 123
e 97 124
e 97 126
e 97 148
e 97 149
e 97 151
e 97 158
e 97 161
e 97 170
e 97 173
e 97 183
e 97 197
e 98 103
e 98 108
e 98 109
e 98 111
e 98 125
e 98 151
e 98 155
e 98 158
e 98 170
e 98 172
e 98 185
e 98 189
e 98 198
e 99 109
e 99 110
e 99 116
e 99 132
e 99 151
e 99 157
e 99 186
e 99 187
e 99 198
e 100 102
e 100 104
e 100 106
e 100 109
e 100 118
e 100 128
e 100 136
e 100 143
e 100 161
e 100 162
e 100 177
e 100 179
e 100 192
e 100 198
e 100 199
e 101 122
e 101 133
e 101 139
e 101 146
e 101 161
e 101 163
e 101 164
e 101 170
e 101 197
e 102 107
e 102 116
e 102 118
e 102 120
e 102 124
e 102 134
e 102 141
e 102 147
e 102 152
e 102 159
e 102 166
e 102 173
e 102 180
e 102 184
e 102 185
e 102 188
e 102 190
e 103 109
e 103 121
e 103 129
e 103 163
e 103 164
e 103 168
e 103 186
e 103 197
e 104 115
e 104 128
e 104 129
e 104 130
e 104 138
e 104 142
e 104 170
e 104 180
e 104 187
e 105 107
e 105 115
e 105 125
e 105 128
e 105 130
e 105 138
e 105 140
e 105 149
e 105 157
e 105 182
e 105 185
e 105 192
e 105 197
e 105 199
e 106 108
e 106 121
e 106 127
e 106 132
e 106 133
e 106 143
e 106 147
e 106 148
e 106 166
e 106 177
e 107 113
e 107 126
e 107 128
e 107 139
e 107 158
e 107 162
e 107 164
e 107 182
e 107 195
e 107 198
e 108 138
e 108 142
e 108 147
e 108 158
e 108 159
e 108 182
e 108 195
e 109 115
e 109 119
e 109 146
e 109 147
e 109 166
e 109 180
e 109 189
e 109 191
e 109 198
e 109 200
e 110 112
e 110 113
e 110 133
e 110 136
e 110 141
e 110 152
e 110 156
e 110 158
e 110 162
e 110 175
e 110 177
e 111 124
e 111 173
e 111 174
e 111 183
e 111 199
e 111 200
e 112 115
e 112 120
e 112 122
e 112 129
e 112 135
e 112 138
e 112 142
e 112 143
e 112 189
e 112 194
e 112 200
e 113 128
e 113 133
e 113 156
e 113 164
e 113 167
e 113 175
e 114 122
e 114 158
e 114 160
e 114 163
e 114 167
e 115 119
e 115 136
e 115 143
e 115 150
e 115 151
e 115 154
e 115 160
e 115 169
e 115 171
e 115 179
e 115 194
e 116 149
e 116 152
e 116 166
e 116 182
e 116 191
e 117 121
e 117 151
e 117 162
e 117 189
e 117 191
e 118 128
e 118 135
e 118 145
e 118 156
e 118 162
e 118 187
e 118 193
e 118 194
e 119 127
e 119 153
e 119 162
e 119 168
e 119 169
e 119 189
e 119 192
e 120 124
e 120 129
e 120 162
e 120 167
e 120 169
e 120 183
e 120 194
e 121 145
e 121 148
e 121 149
e 121 155
e 121 156
e 121 160
e 121 162
e 121 164
e 121 167
e 121 171
e 121 185
e 121 190
e 121 194
e 122 137
e 122 142
e 122 145
e 122 148
e 122 173
e 122 182
e 122 184
e 122 189
e 122 197
e 122 200
e 123 127
e 123 136
e 123 138
e 123 141
e 123 194
e 124 126
e 124 128
e 124 178
e 124 198
e 125 128
e 125 135
e 125 136
e 125 145
e 125 152
e 125 154
e 125 177
e 125 186
e 125 190
e 125 192
e 126 129
e 126 171
e 126 172
e 127 140
e 127 147
e 127 155
e 127 165
e 127 192
e 127 194
e 127 198
e 128 132
e 128 146
e 128 156
e 128 157
e 128 169
e 128 173
e 128 185
e 128 197
e 129 133
e 129 138
e 129 159
e 129 164
e 129 173
e 129 184
e 129 185
e 129 196
e 129 200
e 130 146
e 130 156
e 130 169
e 130 192
e 130 199
e 131 143
e 131 169
e 131 181
e 131 192
e 131 194
e 132 133
e 132 140
e 132 148
e 132 150
e 132 155
e 132 176
e 132 177
e 133 145
e 133 157
e 133 162
e 133 165
e 133 170
e 133 176
e 133 178
e 133 182
e 134 137
e 134 138
e 134 144
e 134 148
e 134 154
e 134 162
e 134 173
e 134 187
e 134 191
e 134 194
e 135 169
e 135 171
e 135 172
e 135 174
e 135 179
e 135 198
e 136 139
e 136 145
e 136 163
e 136 178
e 136 191
e 136 200
e 137 149
e 137 167
e 137 172
e 137 178
e 137 194
e 138 140
e 138 142
e 138 151
e 138 165
e 138 174
e 138 184
e 138 185
e 138 195
e 138 198
e 139 156
e 139 176
e 139 185
e 140 141
e 140 158
e 140 159
e 140 163
e 140 172
e 140 173
e 140 181
e 140 183
e 141 163
e 141 170
e 141 172
e 141 174
e 141 190
e 141 199
e 141 200
e 142 147
e 142 166
e 142 169
e 142 170
e 142 183
e 142 189
e 143 161
e 143 168
e 143 183
e 143 188
e 144 145
e 144 151
e 144 159
e 144 182
e 144 186
e 144 197
e 145 157
e 145 160
e 145 161
e 145 162
e 145 168
e 145 196
e 146 152
e 146 166
e 146 167
e 146 172
e 147 152
e 147 158
e 147 170
e 147 194
e 147 195
e 148 160
e 148 194
e 149 153
e 149 156
e 149 163
e 149 177
e 149 178
e 149 180
e 149 186
e 150 161
e 150 165
e 150 168
e 150 191
e 151 162
e 151 164
e 151 168
e 151 180
e 151 182
e 151 194
e 151 195
e 152 159
e 152 174
e 152 178
e 152 189
e 152 199
e 153 165
e 153 185
e 153 191
e 153 192
e 154 165
e 154 171
e 154 193
e 155 183
e 155 191
e 155 199
e 156 177
e 156 187
e 156 192
e 156 194
e 157 158
e 157 162
e 157 198
e 158 166
e 158 174
e 158 184
e 158 191
e 159 165
e 159 166
e 159 168
e 159 188
e 159 191
e 160 171
e 160 176
e 160 182
e 160 183
e 160 185
e 161 172
e 161 188
e 161 200
e 162 199
e 163 164
e 163 181
e 163 184
e 163 185
e 164 192
e 165 167
e 165 170
e 165 178
e 165 180
e 165 191
e 165 196
e 166 184
e 166 185
e 166 188
e 167 179
e 167 182
e 167 183
e 167 192
e 168 176
e 168 179
e 168 185
e 168 189
e 168 191
e 169 178
e 169 182
e 169 196
e 169 200
e 170 178
e 170 181
e 170 185
e 170 192
e 171 178
e 171 186
e 171 199
e 172 196
e 172 198
e 173 177
e 173 179
e 174 191
e 174 199
e 177 182
e 177 186
e 177 193
e 178 199
e 178 200
e 179 196
e 180 181
e 180 189
e 181 183
e 181 192
e 181 193
e 181 197
e 182 193
e 183 199
e 184 196
e 185 186
e 185 192
e 187 190
e 187 197
e 188 199
e 188 200
e 189 196
e 190 199
e 191 196
e 191 200
e 193 195
e 196 198
